27 27
21
3 3 16 20
3 4 16 23
3 5 0 22
3 6 3 21
3 7 6 9
3 8 9 19
3 9 6 0
3 10 0 12
3 11 6 16
3 12 0 0
3 19 9 0
3 20 20 0
3 21 3 0
4 3 19 20
4 4 19 23
4 6 16 0
4 7 12 0
4 8 23 19
4 14 16 6
4 19 23 0
4 20 12 7
